100
128
13
7
6
1
46
19
34
38
4
22
17
24
9
8
2
14
5
8
40
35
3
14
9
9
7
36
56
20
4
2
19
29
9
17
13
28
60
48
20
12
23
20
11
60
14
39
32
20
16
32
17
27
52
5
14
24
30
14
3
6
51
35
32
28
32
23
38
62
57
22
49
32
23
30
53
26
3
58
30
46
30
38
29
63
46
1
33
47
61
28
39
36
64
62
35
45
48
59
26
43